c User generated cnf file
p cnf 6 30
5 2 -6 0 
3 3 -3 0 
2 -6 6 0 
3 2 -2 0 
3 5 -6 0 
3 4 -1 0 
5 -3 2 0 
2 6 -1 0 
5 5 -1 0 
5 4 -4 0 
1 -2 4 0 
6 -5 1 0 
1 -6 2 0 
5 2 -2 0 
4 -6 3 0 
4 -2 2 0 
2 5 -2 0 
2 2 -5 0 
3 -2 5 0 
5 -5 2 0 
1 4 -1 0 
6 -2 4 0 
4 6 -5 0 
6 -5 5 0 
3 2 -4 0 
5 -5 5 0 
4 5 -6 0 
6 -6 5 0 
1 1 -5 0 
6 -5 6 0 
